9800.33,62.06,76.99
11147.69,54.56,67.68
10457.53,58.16,72.15
10422.14,58.36,72.39
10685.88,56.92,70.61
10197.01,59.65,73.99
10930.36,55.64,69.03
10799.74,56.32,69.86
9731.94,62.5,77.53
11112.12,54.73,67.9
10243.54,59.38,73.66
9774.27,62.23,77.19
10264.02,59.26,73.51
10300.33,59.05,73.25
10865.31,55.98,69.44
10009.67,60.76,75.38
9517.73,63.9,79.27
9671.66,62.89,78.01
10379.62,58.6,72.69
9246.14,65.78,81.6
